
Gurobi 11.0.0 (linux64) logging started Tue Sep 17 02:24:20 2024

Set parameter LogFile to value "gurobi.log"
Set parameter InfUnbdInfo to value 1
Gurobi Optimizer version 11.0.0 build v11.0.0rc2 (linux64 - "Ubuntu 22.04.4 LTS")

CPU model: AMD EPYC 7V13 64-Core Processor, instruction set [SSE2|AVX|AVX2]
Thread count: 128 physical cores, 128 logical processors, using up to 32 threads

Optimize a model with 43 rows, 1905 columns and 154 nonzeros
Model fingerprint: 0xd835f19b
Model has 2065 quadratic constraints
Model has 2 general constraints
Variable types: 640 continuous, 1265 integer (0 binary)
Coefficient statistics:
  Matrix range     [1e+00, 1e+05]
  QMatrix range    [1e+00, 1e+05]
  QLMatrix range   [1e+00, 1e+05]
  Objective range  [1e+00, 1e+00]
  Bounds range     [1e+00, 5e+13]
  RHS range        [1e+00, 1e+00]
  QRHS range       [1e+00, 2e+06]
Warning: Model contains large bounds
         Consider reformulating model or setting NumericFocus parameter
         to avoid numerical issues.
Using branch priorities (all 0).
Presolve added 88 rows and 0 columns
Presolve removed 0 rows and 167 columns
Presolve time: 0.02s
Presolved: 7187 rows, 2600 columns, 18531 nonzeros
Presolved model has 20 SOS constraint(s)
Presolved model has 1349 bilinear constraint(s)
Warning: Model contains variables with very large bounds participating
         in product terms.
         Presolve was not able to compute smaller bounds for these variables.
         Consider bounding these variables or reformulating the model.


Solving non-convex MIQCP

Variable types: 983 continuous, 1617 integer (622 binary)

Root relaxation: objective 2.232725e+01, 302 iterations, 0.01 seconds (0.01 work units)

    Nodes    |    Current Node    |     Objective Bounds      |     Work
 Expl Unexpl |  Obj  Depth IntInf | Incumbent    BestBd   Gap | It/Node Time

     0     0   22.32725    0  209          -   22.32725      -     -    0s
H    0     0                    1.339716e+10   22.32725   100%     -    0s
H    0     0                    4.407607e+08   22.32725   100%     -    0s
     0     0 20022.5935    0  226 4.4076e+08 20022.5935   100%     -    0s
H    0     0                    2411760.0000 70022.5935  97.1%     -    0s
     0     0 70022.5935    0  226 2411760.00 70022.5935  97.1%     -    0s
     0     0 120017.715    0  191 2411760.00 120017.715  95.0%     -    0s
H    0     0                    2344399.9998 120018.792  94.9%     -    0s
     0     0 120018.792    0  191 2344400.00 120018.792  94.9%     -    0s
     0     0 120018.805    0  137 2344400.00 120018.805  94.9%     -    0s
H    0     0                    151800.00000 120019.393  20.9%     -    0s
H    0     0                    128239.07495 120019.393  6.41%     -    0s
     0     0 120019.393    0  172 128239.075 120019.393  6.41%     -    0s
     0     0 120019.833    0  168 128239.075 120019.833  6.41%     -    0s
     0     0 120019.833    0  128 128239.075 120019.833  6.41%     -    0s
     0     0 120019.833    0  158 128239.075 120019.833  6.41%     -    1s
     0     0 120020.239    0  162 128239.075 120020.239  6.41%     -    1s
     0     0 120021.157    0  154 128239.075 120021.157  6.41%     -    1s
     0     0 120024.353    0  156 128239.075 120024.353  6.41%     -    1s
     0     0 120037.104    0  153 128239.075 120037.104  6.40%     -    1s
     0     0 120046.307    0  158 128239.075 120046.307  6.39%     -    1s
H    0     0                    128039.07495 120093.851  6.21%     -    1s
     0     0 120093.851    0  148 128039.075 120093.851  6.21%     -    1s
     0     0 120099.082    0  148 128039.075 120099.082  6.20%     -    1s
     0     0 120105.291    0  142 128039.075 120105.291  6.20%     -    1s
     0     0 120122.010    0  147 128039.075 120122.010  6.18%     -    1s
     0     0 120145.838    0  148 128039.075 120145.838  6.16%     -    1s
     0     0 120161.302    0  150 128039.075 120161.302  6.15%     -    1s
     0     0 120236.237    0  147 128039.075 120236.237  6.09%     -    1s
     0     0 120239.273    0  149 128039.075 120239.273  6.09%     -    2s
     0     0 120252.251    0  152 128039.075 120252.251  6.08%     -    2s
     0     0 120261.421    0  151 128039.075 120261.421  6.07%     -    2s
     0     2 120261.421    0  151 128039.075 120261.421  6.07%     -    2s
H   84    61                    127839.07495 120261.421  5.93%  43.4    3s
H  609   377                    127839.07475 120261.421  5.93%  24.1    3s
* 4350   673              20    127839.07447 120462.337  5.77%  13.8    4s
  4480   455 infeasible   16      127839.074 120462.337  5.77%  13.7    5s

Cutting planes:
  Learned: 1
  Gomory: 20
  Lift-and-project: 1
  Implied bound: 10
  MIR: 102
  StrongCG: 14
  Flow cover: 6
  Inf proof: 2
  RLT: 55
  Relax-and-lift: 5

Explored 6529 nodes (78846 simplex iterations) in 5.72 seconds (0.83 work units)
Thread count was 32 (of 128 available processors)

Solution count 10: 127839 127839 127839 ... 4.40761e+08

Optimal solution found (tolerance 1.00e-10)
Warning: max constraint violation (7.6373e-04) exceeds tolerance
Warning: max general constraint violation (7.6373e-04) exceeds tolerance
Best objective 1.278390744674e+05, best bound 1.278390744674e+05, gap 0.0000%
